Route #1: 31 46 35
Route #2: 20 41 22 15
Route #3: 38 47 26 48 96 64 34
Route #4: 50 91 52
Route #5: 8 17
Route #6: 1 70 54
Route #7: 57 72 36 29 43 45 2 7
Route #8: 27 97 19
Route #9: 92 9 86
Route #10: 100 61 23
Route #11: 75 93
Route #12: 32 33 53 73 95 24
Route #13: 14 49 6 37 87
Route #14: 28 42 78 65 25
Route #15: 5 12 58
Route #16: 21 56 94 80
Route #17: 44 88 67 40
Route #18: 30 85 11 79
Route #19: 63 77 3
Route #20: 74 13 4
Route #21: 83 51 81
Route #22: 69 16 55 76
Route #23: 71 62 99 98 89
Route #24: 82 60 59
Route #25: 66 84 90 68
Route #26: 18 10 39
Cost 27591.0000
Time 16.0007